; benchmark generated from python API
(set-info :status unknown)
(declare-fun x_days () Int)
(assert
 (>= x_days (- 36525)))
(assert
 (<= x_days 36523))
(assert
 (>= x_days 7245))
(assert
 (<= x_days 7303))
(assert
 (let ((?x1134 (+ x_days 730179)))
(let ((?x1133 (mod ?x1134 146097)))
(let ((?x750 (div ?x1133 36524)))
(let ((?x1067 (ite (<= 4 ?x750) 3 ?x750)))
(let ((?x610 (- ?x1133 (* ?x1067 36524))))
(let ((?x947 (mod ?x610 1461)))
(let ((?x618 (div ?x947 365)))
(let ((?x987 (ite (<= 4 ?x618) 3 ?x618)))
(let ((?x1174 (+ (+ (* (div ?x1134 146097) 400) (* ?x1067 100)) (* (div ?x610 1461) 4))))
(let ((?x3258 (+ (+ ?x1174 ?x987) 1)))
(let (($x3269 (or (and (= (mod ?x3258 4) 0) (and (distinct (mod ?x3258 100) 0) true)) (= (mod ?x3258 400) 0))))
(let ((?x592 (- ?x947 (* ?x987 365))))
(let ((?x1058 (ite $x3269 31 31)))
(let (($x776 (>= ?x592 ?x1058)))
(let ((?x452 (ite $x776 (+ (- ?x592 ?x1058) 1) (+ (- ?x592 (ite $x3269 0 0)) 1))))
(let ((?x795 (ite $x3269 60 59)))
(let (($x853 (>= ?x592 ?x795)))
(let ((?x483 (ite $x3269 91 90)))
(let (($x945 (>= ?x592 ?x483)))
(let ((?x3531 (ite $x945 (+ (- ?x592 ?x483) 1) (ite $x853 (+ (- ?x592 ?x795) 1) ?x452))))
(let ((?x1265 (ite $x3269 121 120)))
(let (($x470 (>= ?x592 ?x1265)))
(let ((?x3702 (ite $x3269 152 151)))
(let (($x675 (>= ?x592 ?x3702)))
(let ((?x450 (ite $x675 (+ (- ?x592 ?x3702) 1) (ite $x470 (+ (- ?x592 ?x1265) 1) ?x3531))))
(let ((?x745 (ite $x3269 182 181)))
(let (($x1071 (>= ?x592 ?x745)))
(let ((?x3024 (ite $x3269 213 212)))
(let (($x884 (>= ?x592 ?x3024)))
(let ((?x3197 (ite $x884 (+ (- ?x592 ?x3024) 1) (ite $x1071 (+ (- ?x592 ?x745) 1) ?x450))))
(let ((?x551 (ite $x3269 244 243)))
(let (($x780 (>= ?x592 ?x551)))
(let ((?x803 (ite $x3269 274 273)))
(let (($x695 (>= ?x592 ?x803)))
(let ((?x836 (ite $x695 (+ (- ?x592 ?x803) 1) (ite $x780 (+ (- ?x592 ?x551) 1) ?x3197))))
(let ((?x2915 (ite $x3269 305 304)))
(let (($x1147 (>= ?x592 ?x2915)))
(let ((?x883 (ite $x3269 335 334)))
(let (($x1159 (>= ?x592 ?x883)))
(let ((?x839 (ite $x1159 (+ (- ?x592 ?x883) 1) (ite $x1147 (+ (- ?x592 ?x2915) 1) ?x836))))
(let ((?x528 (ite $x470 5 (ite $x945 4 (ite $x853 3 (ite $x776 2 1))))))
(let ((?x767 (ite $x780 9 (ite $x884 8 (ite $x1071 7 (ite $x675 6 ?x528))))))
(let ((?x2785 (+ (ite $x1159 12 (ite $x1147 11 (ite $x695 10 ?x767))) (+ (* 1 12) 0))))
(let ((?x660 (- ?x2785 1)))
(let ((?x832 (+ (mod ?x660 12) 1)))
(let ((?x588 (ite (or (= ?x832 4) (= ?x832 6) (= ?x832 9) (= ?x832 11)) 30 31)))
(let (($x877 (and (= (mod (+ ?x3258 (+ 0 (div ?x660 12))) 4) 0) (and (distinct (mod (+ ?x3258 (+ 0 (div ?x660 12))) 100) 0) true))))
(let (($x890 (or $x877 (= (mod (+ ?x3258 (+ 0 (div ?x660 12))) 400) 0))))
(let ((?x964 (ite (= ?x832 2) (ite $x890 29 28) ?x588)))
(let ((?x766 (ite (> 1 ?x839) 1 (ite (> ?x839 ?x964) ?x964 ?x839))))
(let ((?x720 (ite (> 1 ?x766) 1 (ite (> ?x766 ?x964) ?x964 ?x766))))
(let ((?x1181 (ite (= 2 ?x832) (ite $x890 31 31) (ite (= 1 ?x832) (ite $x890 0 0) 0))))
(let ((?x825 (ite (= 4 ?x832) (ite $x890 91 90) (ite (= 3 ?x832) (ite $x890 60 59) ?x1181))))
(let ((?x654 (ite (= 6 ?x832) (ite $x890 152 151) (ite (= 5 ?x832) (ite $x890 121 120) ?x825))))
(let ((?x1062 (ite (= 8 ?x832) (ite $x890 213 212) (ite (= 7 ?x832) (ite $x890 182 181) ?x654))))
(let ((?x1127 (ite (= 10 ?x832) (ite $x890 274 273) (ite (= 9 ?x832) (ite $x890 244 243) ?x1062))))
(let ((?x2893 (ite (= 12 ?x832) (ite $x890 335 334) (ite (= 11 ?x832) (ite $x890 305 304) ?x1127))))
(let ((?x455 (+ (* 365 (- (+ ?x3258 (+ 0 (div ?x660 12))) 1)) (div (- (+ ?x3258 (+ 0 (div ?x660 12))) 1) 4))))
(let ((?x672 (+ (- ?x455 (div (- (+ ?x3258 (+ 0 (div ?x660 12))) 1) 100)) (div (- (+ ?x3258 (+ 0 (div ?x660 12))) 1) 400))))
(let ((?x1021 (+ (+ (- (+ (+ ?x672 ?x2893) (- ?x720 1)) 730179) 0) 730179)))
(let ((?x1083 (mod ?x1021 146097)))
(let ((?x983 (div ?x1083 36524)))
(let ((?x563 (ite (<= 4 ?x983) 3 ?x983)))
(let ((?x488 (- ?x1083 (* ?x563 36524))))
(let ((?x1004 (mod ?x488 1461)))
(let ((?x3452 (div ?x1004 365)))
(let ((?x779 (ite (<= 4 ?x3452) 3 ?x3452)))
(let ((?x620 (+ (+ (* (div ?x1021 146097) 400) (* ?x563 100)) (* (div ?x488 1461) 4))))
(let ((?x641 (+ (+ ?x620 ?x779) 1)))
(let (($x927 (or (and (= (mod ?x641 4) 0) (and (distinct (mod ?x641 100) 0) true)) (= (mod ?x641 400) 0))))
(let ((?x3451 (- ?x1004 (* ?x779 365))))
(let ((?x1079 (ite $x927 31 31)))
(let (($x485 (>= ?x3451 ?x1079)))
(let ((?x3190 (ite $x485 (+ (- ?x3451 ?x1079) 1) (+ (- ?x3451 (ite $x927 0 0)) 1))))
(let ((?x3030 (ite $x927 60 59)))
(let (($x531 (>= ?x3451 ?x3030)))
(let ((?x673 (ite $x927 91 90)))
(let (($x3026 (>= ?x3451 ?x673)))
(let ((?x3701 (ite $x3026 (+ (- ?x3451 ?x673) 1) (ite $x531 (+ (- ?x3451 ?x3030) 1) ?x3190))))
(let ((?x966 (ite $x927 121 120)))
(let (($x3230 (>= ?x3451 ?x966)))
(let ((?x922 (ite $x927 152 151)))
(let (($x1119 (>= ?x3451 ?x922)))
(let ((?x715 (ite $x1119 (+ (- ?x3451 ?x922) 1) (ite $x3230 (+ (- ?x3451 ?x966) 1) ?x3701))))
(let ((?x1145 (ite $x927 182 181)))
(let (($x1029 (>= ?x3451 ?x1145)))
(let ((?x497 (ite $x927 213 212)))
(let (($x742 (>= ?x3451 ?x497)))
(let ((?x692 (ite $x742 (+ (- ?x3451 ?x497) 1) (ite $x1029 (+ (- ?x3451 ?x1145) 1) ?x715))))
(let ((?x1135 (ite $x927 244 243)))
(let (($x682 (>= ?x3451 ?x1135)))
(let ((?x835 (ite $x927 274 273)))
(let (($x855 (>= ?x3451 ?x835)))
(let ((?x1763 (ite $x855 (+ (- ?x3451 ?x835) 1) (ite $x682 (+ (- ?x3451 ?x1135) 1) ?x692))))
(let ((?x2625 (ite $x927 305 304)))
(let (($x627 (>= ?x3451 ?x2625)))
(let ((?x865 (ite $x927 335 334)))
(let (($x535 (>= ?x3451 ?x865)))
(let ((?x838 (ite $x535 (+ (- ?x3451 ?x865) 1) (ite $x627 (+ (- ?x3451 ?x2625) 1) ?x1763))))
(let (($x501 (= 0 0)))
(let (($x1760 (= (mod (ite $x501 (+ ?x3258 (+ 0 (div ?x660 12))) ?x641) 400) 0)))
(let (($x3483 (and (distinct (mod (ite $x501 (+ ?x3258 (+ 0 (div ?x660 12))) ?x641) 100) 0) true)))
(let (($x901 (= (mod (ite $x501 (+ ?x3258 (+ 0 (div ?x660 12))) ?x641) 4) 0)))
(let (($x3209 (or (and $x901 $x3483) $x1760)))
(let ((?x1102 (ite $x3230 5 (ite $x3026 4 (ite $x531 3 (ite $x485 2 1))))))
(let ((?x899 (ite $x682 9 (ite $x742 8 (ite $x1029 7 (ite $x1119 6 ?x1102))))))
(let ((?x1036 (ite $x501 ?x832 (ite $x535 12 (ite $x627 11 (ite $x855 10 ?x899))))))
(let ((?x941 (ite (= 2 ?x1036) (ite $x3209 31 31) (ite (= 1 ?x1036) (ite $x3209 0 0) 0))))
(let ((?x1126 (ite (= 4 ?x1036) (ite $x3209 91 90) (ite (= 3 ?x1036) (ite $x3209 60 59) ?x941))))
(let ((?x566 (ite (= 6 ?x1036) (ite $x3209 152 151) (ite (= 5 ?x1036) (ite $x3209 121 120) ?x1126))))
(let ((?x587 (ite (= 8 ?x1036) (ite $x3209 213 212) (ite (= 7 ?x1036) (ite $x3209 182 181) ?x566))))
(let ((?x3200 (ite (= 10 ?x1036) (ite $x3209 274 273) (ite (= 9 ?x1036) (ite $x3209 244 243) ?x587))))
(let ((?x3632 (ite (= 12 ?x1036) (ite $x3209 335 334) (ite (= 11 ?x1036) (ite $x3209 305 304) ?x3200))))
(let ((?x490 (+ ?x3258 (+ 0 (div ?x660 12)))))
(let ((?x791 (ite $x501 ?x490 ?x641)))
(let ((?x621 (- ?x791 1)))
(let ((?x843 (+ (- (+ (* 365 ?x621) (div ?x621 4)) (div ?x621 100)) (div ?x621 400))))
(let (($x522 (= (- (+ (+ ?x843 ?x3632) (- (ite $x501 ?x720 ?x838) 1)) 730179) (+ x_days 365))))
(not $x522))))))))))))))))))))))))))))))))))))))))))))))))))))))))))))))))))))))))))))))))))))))))))))))))))))))))))))))))))))))))
(check-sat)
